*SENSE:Maximize
NAME          MODEL
ROWS
 N  OBJ
 L  C0000000
 L  C0000001
 L  C0000002
 L  C0000003
 L  C0000004
 L  C0000005
 L  C0000006
COLUMNS
    X0000000  C0000000   1.000000000000e+00
    X0000000  C0000006   2.225683778396e+00
    X0000000  OBJ        1.767011904000e+03
    X0000001  C0000001   1.000000000000e+00
    X0000001  C0000002   1.000000000000e+00
    X0000001  C0000006   1.438804905251e+00
    X0000001  OBJ        1.142294076000e+03
    X0000002  C0000003   1.000000000000e+00
    X0000002  C0000004   1.000000000000e+00
    X0000002  C0000006   4.567738931712e+01
    X0000002  OBJ        1.142276889600e+03
    X0000003  C0000005   1.000000000000e+00
    X0000003  C0000006   3.012793280000e+01
    X0000003  OBJ        7.534240000000e+02
    MARK      'MARKER'                 'INTORG'
    X0000004  C0000000  -1.000000000000e+00
    X0000004  C0000001  -1.000000000000e+00
    X0000004  C0000004   1.000000000000e+00
    X0000004  OBJ       -2.284795034855e+03
    MARK      'MARKER'                 'INTEND'
    MARK      'MARKER'                 'INTORG'
    X0000005  C0000002   1.000000000000e+00
    X0000005  C0000003  -1.000000000000e+00
    X0000005  C0000005  -1.000000000000e+00
    X0000005  OBJ       -5.600000000000e+01
    MARK      'MARKER'                 'INTEND'
RHS
    RHS       C0000000   0.000000000000e+00
    RHS       C0000001   0.000000000000e+00
    RHS       C0000002   1.000000000000e+00
    RHS       C0000003   0.000000000000e+00
    RHS       C0000004   1.000000000000e+00
    RHS       C0000005   0.000000000000e+00
    RHS       C0000006   1.106000000000e+02
BOUNDS
 BV BND       X0000004
 BV BND       X0000005
ENDATA
